Cu\(1\0\0)
1.0
       12.7798995972         0.0000000000         0.0000000000
        0.0000000000        12.7798995972         0.0000000000
        0.0000000000         0.0000000000        23.6147003174
   Cu   Ag    O    C    H
   74    1    3    2    1
Direct
    -0.000000000        -0.000000000         0.004230000
     0.000000000         0.000000000         0.157299994
     0.100000002         0.100000002         0.080770001
     0.200000004        -0.000000000         0.004230000
     0.200000004         0.000000000         0.157299994
     0.300000015         0.100000002         0.080770001
     0.400000007        -0.000000000         0.004230000
     0.400000007         0.000000000         0.157299994
     0.500000000         0.100000002         0.080770001
     0.600000030        -0.000000000         0.004230000
     0.600000030         0.000000000         0.157299994
     0.699999985         0.100000002         0.080770001
     0.800000015        -0.000000000         0.004230000
     0.800000015         0.000000000         0.157299994
     0.899999970         0.100000002         0.080770001
    -0.000000000         0.200000004         0.004230000
     0.000000000         0.200000004         0.157299994
     0.100000002         0.300000015         0.080770001
     0.200000004         0.200000004         0.004230000
     0.200000004         0.200000004         0.157299994
     0.300000015         0.300000015         0.080770001
     0.400000007         0.200000004         0.004230000
     0.400000007         0.200000004         0.157299994
     0.500000000         0.300000015         0.080770001
     0.600000030         0.200000004         0.004230000
     0.600000030         0.200000004         0.157299994
     0.699999985         0.300000015         0.080770001
     0.800000015         0.200000004         0.004230000
     0.800000015         0.200000004         0.157299994
     0.899999970         0.300000015         0.080770001
    -0.000000000         0.400000007         0.004230000
    -0.000000000         0.400000007         0.157299994
     0.100000002         0.500000000         0.080770001
     0.200000004         0.400000007         0.004230000
     0.200000004         0.400000007         0.157299994
     0.300000015         0.500000000         0.080770001
     0.400000007         0.400000007         0.004230000
     0.400000007         0.400000007         0.157299994
     0.500000000         0.500000000         0.080770001
     0.600000030         0.400000007         0.004230000
     0.600000030         0.400000007         0.157299994
     0.699999985         0.500000000         0.080770001
     0.800000015         0.400000007         0.004230000
     0.800000015         0.400000007         0.157299994
     0.899999970         0.500000000         0.080770001
     0.000000000         0.600000030         0.004230000
     0.000000000         0.600000030         0.157299994
     0.100000002         0.699999985         0.080770001
     0.200000004         0.600000030         0.004230000
     0.200000004         0.600000030         0.157299994
     0.300000015         0.699999985         0.080770001
     0.400000007         0.600000030         0.004230000
     0.400000007         0.600000030         0.157299994
     0.500000000         0.699999985         0.080770001
     0.600000030         0.600000030         0.004230000
     0.600000030         0.600000030         0.157299994
     0.699999985         0.699999985         0.080770001
     0.800000015         0.600000030         0.004230000
     0.800000015         0.600000030         0.157299994
     0.899999970         0.699999985         0.080770001
     0.000000000         0.800000015         0.004230000
    -0.000000000         0.800000015         0.157299994
     0.100000002         0.899999970         0.080770001
     0.200000004         0.800000015         0.004230000
     0.300000015         0.899999970         0.080770001
     0.400000007         0.800000015         0.004230000
     0.400000007         0.800000015         0.157299994
     0.500000000         0.899999970         0.080770001
     0.600000030         0.800000015         0.004230000
     0.600000030         0.800000015         0.157299994
     0.699999985         0.899999970         0.080770001
     0.800000015         0.800000015         0.004230000
     0.800000015         0.800000015         0.157299994
     0.899999970         0.899999970         0.080770001
     0.200000004         0.800000015         0.157299994
     0.293399985         0.494129969         0.261200010
     0.298919996         0.803789967         0.219130001
     0.209309987         0.713500030         0.304210016
     0.294539981         0.496709984         0.210440005
     0.292210009         0.739590018         0.316289990
     0.300199986         0.861530028         0.254230002
