Cu\(1\0\0)
1.0
       12.7798995972         0.0000000000         0.0000000000
        0.0000000000        12.7798995972         0.0000000000
        0.0000000000         0.0000000000        23.6147003174
   Cu   Ag
   74    1
Direct
    -0.000000000        -0.000000000         0.004230000
     0.000000000         0.000000000         0.157299994
     0.100000002         0.100000002         0.080770001
     0.200000004        -0.000000000         0.004230000
     0.200000004         0.000000000         0.157299994
     0.300000015         0.100000002         0.080770001
     0.400000007        -0.000000000         0.004230000
     0.400000007         0.000000000         0.157299994
     0.500000000         0.100000002         0.080770001
     0.600000030        -0.000000000         0.004230000
     0.600000030         0.000000000         0.157299994
     0.699999985         0.100000002         0.080770001
     0.800000015        -0.000000000         0.004230000
     0.800000015         0.000000000         0.157299994
     0.899999970         0.100000002         0.080770001
    -0.000000000         0.200000004         0.004230000
     0.000000000         0.200000004         0.157299994
     0.100000002         0.300000015         0.080770001
     0.200000004         0.200000004         0.004230000
     0.200000004         0.200000004         0.157299994
     0.300000015         0.300000015         0.080770001
     0.400000007         0.200000004         0.004230000
     0.400000007         0.200000004         0.157299994
     0.500000000         0.300000015         0.080770001
     0.600000030         0.200000004         0.004230000
     0.600000030         0.200000004         0.157299994
     0.699999985         0.300000015         0.080770001
     0.800000015         0.200000004         0.004230000
     0.800000015         0.200000004         0.157299994
     0.899999970         0.300000015         0.080770001
    -0.000000000         0.400000007         0.004230000
    -0.000000000         0.400000007         0.157299994
     0.100000002         0.500000000         0.080770001
     0.200000004         0.400000007         0.004230000
     0.200000004         0.400000007         0.157299994
     0.300000015         0.500000000         0.080770001
     0.400000007         0.400000007         0.004230000
     0.400000007         0.400000007         0.157299994
     0.500000000         0.500000000         0.080770001
     0.600000030         0.400000007         0.004230000
     0.600000030         0.400000007         0.157299994
     0.699999985         0.500000000         0.080770001
     0.800000015         0.400000007         0.004230000
     0.800000015         0.400000007         0.157299994
     0.899999970         0.500000000         0.080770001
     0.000000000         0.600000030         0.004230000
     0.000000000         0.600000030         0.157299994
     0.100000002         0.699999985         0.080770001
     0.200000004         0.600000030         0.004230000
     0.200000004         0.600000030         0.157299994
     0.300000015         0.699999985         0.080770001
     0.400000007         0.600000030         0.004230000
     0.400000007         0.600000030         0.157299994
     0.500000000         0.699999985         0.080770001
     0.600000030         0.600000030         0.004230000
     0.600000030         0.600000030         0.157299994
     0.699999985         0.699999985         0.080770001
     0.800000015         0.600000030         0.004230000
     0.800000015         0.600000030         0.157299994
     0.899999970         0.699999985         0.080770001
     0.000000000         0.800000015         0.004230000
    -0.000000000         0.800000015         0.157299994
     0.100000002         0.899999970         0.080770001
     0.200000004         0.800000015         0.004230000
     0.200000004         0.800000015         0.157299994
     0.300000015         0.899999970         0.080770001
     0.400000007         0.800000015         0.004230000
     0.400000007         0.800000015         0.157299994
     0.500000000         0.899999970         0.080770001
     0.600000030         0.800000015         0.004230000
     0.600000030         0.800000015         0.157299994
     0.699999985         0.899999970         0.080770001
     0.800000015         0.800000015         0.004230000
     0.899999970         0.899999970         0.080770001
     0.800000015         0.800000015         0.157299994
